p edge 50 118
e 1 4
e 1 8
e 1 14
e 1 24
e 1 27
e 1 33
e 2 39
e 3 8
e 3 14
e 3 22
e 4 8
e 4 9
e 4 12
e 4 21
e 4 27
e 4 36
e 5 8
e 5 48
e 6 17
e 6 21
e 6 24
e 6 25
e 6 38
e 6 40
e 7 8
e 7 15
e 7 16
e 7 17
e 7 23
e 7 27
e 7 44
e 7 48
e 8 15
e 8 29
e 8 49
e 8 50
e 9 16
e 9 21
e 9 25
e 9 37
e 9 39
e 9 44
e 9 48
e 10 14
e 10 18
e 10 20
e 10 37
e 10 42
e 12 13
e 12 28
e 12 33
e 13 43
e 14 18
e 14 20
e 14 24
e 14 27
e 15 16
e 15 27
e 15 31
e 16 33
e 16 48
e 17 21
e 17 22
e 17 25
e 17 29
e 17 34
e 17 44
e 18 30
e 18 43
e 18 49
e 19 39
e 19 50
e 20 41
e 20 44
e 21 22
e 21 44
e 21 49
e 22 24
e 22 33
e 22 39
e 22 40
e 23 35
e 23 45
e 23 48
e 24 32
e 24 38
e 24 47
e 24 49
e 25 42
e 26 31
e 26 47
e 27 34
e 27 49
e 28 50
e 29 38
e 29 39
e 29 41
e 31 43
e 31 46
e 32 41
e 33 34
e 33 44
e 33 49
e 35 38
e 35 39
e 35 43
e 35 50
e 36 47
e 37 40
e 37 41
e 38 42
e 39 43
e 39 48
e 40 48
e 41 50
e 42 43
e 47 49
e 48 50
